instances/shortest_path/discrete/shortest_path_7_20.kp
91729
173

[3.080334588583018 2.946569357086913 0.6205443079356306 1.6768369331682182 1.0512174662721254 0.41570029332544106 2.045089742571831 4.620488850822161 1.4686398579958078 4.837128717140505 4.933067578856873 4.460684550583195 2.1921732697397855 4.543835192801501 3.6391528874125267 2.9497585448833443 3.4741772743006134 0.7190846499210795 3.945253242765105 1.0837498543415853 1.9906271153268351 1.294362904231527 5.039764508347725 0.8968494097487995 3.5876992711699556 1.7503422657910996 1.6421230966222784 0.6514192148445724 0.6093965385127442 5.003838771876863 0.809711262571783 2.253272820509319 2.882171044680023 0.6514077075715426]

[49 10 56 85 58 47 7 37 95 100 17 33 38 94 66 70 71 90 19 64 59 49 30 92 2 10 92 1 95 81 83 97 81 31]
